p cnf 12 16
-12 -7 4 -5 10 -6 2 3 -8 0
1 -4 -2 0
7 12 3 9 8 6 5 -1 2 0
-8 -7 5 -11 3 6 0
-9 10 -1 12 11 0
-1 -10 9 2 12 0
5 1 4 8 -2 0
-6 -8 -3 1 2 4 -10 -9 12 0
8 9 -12 -10 3 -11 -4 0
-7 -4 -2 8 10 -11 -9 -6 -5 0
2 -1 5 -4 -9 -12 11 0
-10 1 4 -5 8 -12 7 11 0
7 -6 -4 -12 11 0
-3 11 -6 0
-10 -7 11 1 2 3 -4 12 0
3 2 6 7 4 11 8 -9 1 0
